%nproc=8
%Mem=4GB
#P B3LYP/6-31G(d,p)
# Opt SCRF=(Solvent=Water)
# Gfinput IOP(6/7=3)  Pop=full  Density  Test
# Units(Ang,Deg)

eti-2dp-opt-g09.log

-3 1
 C                 -0.03677900    1.86311000   -0.81911000
 H                 -0.05642900    1.53009000   -1.85991000
 H                  0.83910200    2.49812000   -0.66358000
 C                 -0.00782000    0.66901000    0.13618000
 O                  0.01905100    1.18454000    1.48591000
 H                  0.56995000    0.52705000    1.95789000
 P                  1.55685900   -0.36208100   -0.02755000
 P                 -1.54994100   -0.37442800   -0.08434000
 O                  1.90523900   -0.75366100    1.40151000
 O                 -1.52327200   -1.53193800    0.89046000
 O                 -2.72267000    0.69693300    0.46658000
 O                  2.71715000    0.76190800   -0.46197000
 O                  1.47188900   -1.38812100   -1.13493000
 O                 -1.84520100   -0.59648800   -1.55655000
 H                 -0.93710800    2.45999100   -0.63867000
 H                 -3.17419900    1.03141300   -0.32070000

