%nproc=8
%Mem=4GB
#P B3LYP/6-31G(d,p)
# Opt SCRF=(Solvent=Water)
# Gfinput IOP(6/7=3)  Pop=full  Density  Test
# Units(Ang,Deg)

pre-ris-2-3dp.log

-2 1
 C                  0.38477100   -0.81953000   -0.79234100
 H                  0.22518100   -0.41349000   -1.79651100
 H                  0.14948000   -1.88662000   -0.84941100
 C                 -0.68115900   -0.19804000    0.15232900
 O                 -0.41042900   -0.60198000    1.51128900
 H                 -1.31994000   -0.93913000    1.76550900
 C                  1.83381100   -0.64057100   -0.41345100
 C                  2.39936000   -1.29351100    0.69140900
 C                  2.70657100    0.14043900   -1.18456100
 C                  3.75386000   -1.12757200    0.97363900
 H                  1.76716000   -1.90834100    1.32229900
 N                  4.01399100    0.31105800   -0.93665100
 H                  2.31770100    0.66045900   -2.05979100
 C                  4.52005100   -0.31852200    0.13449900
 H                  4.21397000   -1.62168200    1.82438900
 H                  5.58252100   -0.17449300    0.32525900
 P                 -0.61367401    1.61681568    0.03339778
 P                 -2.33619867   -0.77739579   -0.33510363
 O                 -1.27979802    2.30600241    1.44951940
 O                  1.01302441    2.11702851   -0.13315371
 O                 -1.51084217    2.13258272   -1.32791543
 O                 -3.51107834   -0.07266471    0.68818121
 O                 -2.40761965   -2.48030019   -0.19684437
 O                 -2.64490782   -0.32356224   -1.95462016
 H                  1.07581966    3.06101035    0.02980346
 H                 -3.20420409   -2.72972603    0.27732858

