%nproc=8
%Mem=4GB
#P B3LYP/6-31G(d,p)
# Opt
# Gfinput IOP(6/7=3)  Pop=full  Density  Test
# Units(Ang,Deg)

Title Card Required

0 1
 C                 -0.51362010    0.87661931   -0.01875003
 O                 -1.01938873    2.21419103   -0.01875003
 H                 -1.97917366    2.19387134   -0.01874056
 P                 -1.15768222    0.02564522   -1.49300479
 P                 -1.15778172    0.02556743    1.45541634
 O                 -2.84698981   -0.18773736   -1.33550008
 H                 -3.20618464   -0.52136341   -2.16089255
 O                 -0.82906310    0.96589655   -2.88298209
 H                 -0.78445898    0.39454974   -3.65315954
 O                 -2.52003315   -0.91284890    1.02211989
 H                 -2.86834564   -1.35122339    1.80193154
 O                 -1.61300522    1.18335198    2.62861987
 H                 -1.47074768    0.82266811    3.50683963
 O                 -0.09440790   -0.86827720    2.02134735
 O                 -0.49491627   -1.31331123   -1.62693361
 C                  1.02637990    0.87661931   -0.01875003
 H                  1.37905401    0.34663032   -0.93649588
 H                  1.37895553    0.30357748    0.87280997
 C                  1.56230239    2.31994913    0.01568988
 C                  1.68217286    3.07342859   -1.15334836
 C                  1.94321264    2.90819641    1.23569696
 C                  2.17401290    4.37703249   -1.06530370
 H                  1.39569848    2.64793275   -2.12559714
 N                  2.41943876    4.16440154    1.33888158
 H                  1.86397392    2.34638018    2.18351220
 C                  2.52857826    4.87724371    0.20094187
 H                  2.28393956    5.00324263   -1.95980141
 H                  2.92147987    5.90338646    0.31392013

 1 2 1.0 4 1.0 5 1.0 16 1.0
 2 3 1.0
 3
 4 6 1.0 8 1.0 15 2.0
 5 10 1.0 12 1.0 14 2.0
 6 7 1.0
 7
 8 9 1.0
 9
 10 11 1.0
 11
 12 13 1.0
 13
 14
 15
 16 17 1.0 18 1.0 19 1.0
 17
 18
 19 20 1.5 21 1.5
 20 22 1.5 23 1.0
 21 24 1.5 25 1.0
 22 26 1.5 27 1.0
 23
 24 26 1.5
 25
 26 28 1.0
 27
 28

