%nproc=8
%Mem=4GB
#P B3LYP/6-31G(d,p)
# Opt SCRF=(Solvent=Water)
# Gfinput IOP(6/7=3)  Pop=full  Density  Test
# Units(Ang,Deg)

pre-eti-2dp.log

-2 1
 C                 -0.03723600    2.07428900    0.65668900
 H                  0.04619400    1.86930900    1.72622900
 H                 -0.96765500    2.61712100    0.46735900
 C                 -0.02861800    0.77220900   -0.14525100
 O                 -0.08808700    1.15265000   -1.54140100
 H                 -0.40112900    0.36059000   -2.00694100
 P                 -1.58887000   -0.22686700    0.18692900
 P                  1.59686000   -0.12337400    0.16521900
 O                 -1.42635200   -1.30578800   -1.08268100
 O                  1.25926700   -1.64141300   -0.53088100
 O                  2.69338100    0.47481400   -0.69276100
 O                 -2.80044800    0.62146500   -0.13273100
 O                 -1.52126100   -0.96203800    1.50863900
 O                  1.82243000   -0.33104400    1.64476900
 H                  0.80554600    2.70843800    0.35985900
 H                  3.61454514    0.32022911   -0.47104016
 H                 -3.68285457    0.26765112    0.00058962

