%nproc=8
%Mem=4GB
#P B3LYP/6-31G(d,p) TD=(NStates=10)
# SCRF=(Solvent=Water)
# Gfinput IOP(6/7=3)  Pop=full  Density  Test
# Units(Ang,Deg)

 peg-5_opt_freq_g09.log

0  1
O          -0.14909         4.33446         0.00000
H          -0.80136         5.04753         0.00000
C          -0.86341         3.09712         0.00000
C           0.14909         1.95958         0.00000
H          -1.51305         3.01913         0.88603
H          -1.51305         3.01913        -0.88603
C          -0.50771         0.57465         0.00000
H           0.79600         2.06716        -0.88045
H           0.79600         2.06716         0.88045
C           0.50771        -0.57465         0.00000
H          -1.16107         0.47975         0.87849
H          -1.16107         0.47975        -0.87849
C          -0.14909        -1.95958         0.00000
H           1.16107        -0.47975        -0.87849
H           1.16107        -0.47975         0.87849
C           0.86341        -3.09712         0.00000
H          -0.79600        -2.06716         0.88045
H          -0.79600        -2.06716        -0.88045
O           0.14909        -4.33446         0.00000
H           1.51305        -3.01913        -0.88603
H           1.51305        -3.01913         0.88603
H           0.80136        -5.04753         0.00000

