%nproc=8
%Mem=4GB
#P B3LYP/6-31G(d,p)
# Opt=tight SCRF=(Solvent=Water)
# Gfinput IOP(6/7=3)  Pop=full  Density  Test
# Units(Ang,Deg)

 peg-6.xyz

0  1
O           0.00000         0.00000         0.00000
H           0.00000         0.00000         0.94700
C           1.30108         0.00000        -0.45999
C           1.30108         0.00000        -1.95999
H           1.80548         0.87365        -0.10333
H           1.80548        -0.87365        -0.10333
C           2.71530         0.00000        -2.45999
H           0.79668        -0.87365        -2.31666
H           0.79668         0.87365        -2.31666
C           2.71530         0.00000        -3.95999
H           3.21970         0.87365        -2.10332
H           3.21970        -0.87365        -2.10332
C           4.12952         0.00000        -4.45998
H           2.21090        -0.87365        -4.31666
H           2.21090         0.87365        -4.31666
C           4.12953         0.00000        -5.95998
H           4.63392         0.87365        -4.10332
H           4.63392        -0.87365        -4.10332
C           5.54374         0.00000        -6.45998
H           3.62513        -0.87365        -6.31665
H           3.62513         0.87365        -6.31665
O           5.54375         0.00000        -7.83998
H           6.04814         0.87365        -6.10331
H           6.04814        -0.87365        -6.10331
H           6.43659         0.00000        -8.15564

