%nproc=8
%Mem=4GB
#P B3LYP/6-31G(d,p)
# Opt
# Gfinput IOP(6/7=3)  Pop=full  Density  Test
# Units(Ang,Deg)

 alendronate-opt-g09.log

0  1
C           0.15457         0.15351        -0.34884
O          -0.02441         0.22105        -1.75090
H           0.68015        -0.28967        -2.17675
P           1.63772         1.16261         0.15044
P           0.41011        -1.65691         0.22242
O           2.60839         0.91695        -1.11434
H           3.51916         1.20176        -0.94612
O           1.27557         2.73650         0.02046
H           1.16041         3.12681         0.89997
O           1.90168        -1.76410         0.79507
H           2.13351        -0.99155         1.36490
O           0.63125        -2.43690        -1.18768
H          -0.16463        -2.94204        -1.41057
O          -0.69423        -2.17056         1.05285
O           2.18604         0.81734         1.50286
C          -1.10142         0.76406         0.31331
C          -2.43451         0.18867        -0.18539
H          -1.08582         1.84008         0.10466
H          -1.01936         0.63598         1.39873
C          -3.62899         0.91409         0.44011
H          -2.47717         0.29215        -1.27569
H          -2.50444        -0.87402         0.05491
H          -3.62257         0.75196         1.52534
H          -3.51562         2.00426         0.28589
N          -4.88374         0.36687        -0.08440
H          -5.67513         0.80376         0.38179
H          -4.97189         0.60263        -1.07096

