%nproc=8
%Mem=4GB
#t B3LYP/6-31G(d,p) scrf=(solvent=water)
# Gfinput IOP(6/7=3)  Pop=hirshfeld  Density  Test
# Units(Ang,Deg)

 w-alendronate-opt-g09.log

0  1
C           0.22759         0.14706        -0.33605
O           0.14244         0.20912        -1.75130
H           0.99734        -0.06391        -2.12067
P           1.75280         1.07379         0.23326
P           0.29324        -1.63255         0.23573
O           2.77720         0.69408        -0.95586
H           3.40460         1.40490        -1.16330
O           1.47215         2.63387        -0.10221
H           1.28307         3.14832         0.69829
O           1.74992        -2.03915        -0.32655
H           1.91307        -2.99616        -0.32896
O          -0.67436        -2.45560        -0.77065
H          -1.47247        -2.77113        -0.31948
O           0.00415        -1.86375         1.67776
O           2.17480         0.80631         1.63482
C          -1.01172         0.85985         0.24918
C          -2.37010         0.26816        -0.15340
H          -0.96219         1.89644        -0.09998
H          -0.91942         0.87910         1.34031
C          -3.52440         1.19058         0.24862
H          -2.40402         0.10102        -1.23385
H          -2.52107        -0.70431         0.33143
H          -3.45073         1.41336         1.32713
H          -3.41771         2.14878        -0.27471
N          -4.81289         0.60203        -0.14436
H          -4.99049        -0.21768         0.43474
H          -5.55900         1.25541         0.08647

